p cnf 20 94
-1 -4 0
-2 -3 0
-1 -6 0
-2 -5 0
-1 -8 0
-2 -7 0
-1 -10 0
-2 -9 0
-1 -12 0
-2 -11 0
-1 -14 0
-2 -13 0
-1 -18 0
-2 -17 0
-1 -20 0
-2 -19 0
-3 -6 0
-4 -5 0
-3 -8 0
-4 -7 0
-3 -10 0
-4 -9 0
-3 -12 0
-4 -11 0
-3 -14 0
-4 -13 0
-3 -16 0
-4 -15 0
-3 -18 0
-4 -17 0
-3 -20 0
-4 -19 0
-5 -8 0
-6 -7 0
-5 -10 0
-6 -9 0
-5 -12 0
-6 -11 0
-5 -14 0
-6 -13 0
-5 -16 0
-6 -15 0
-5 -20 0
-6 -19 0
-7 -10 0
-8 -9 0
-7 -12 0
-8 -11 0
-7 -14 0
-8 -13 0
-7 -16 0
-8 -15 0
-7 -18 0
-8 -17 0
-7 -20 0
-8 -19 0
-9 -12 0
-10 -11 0
-9 -14 0
-10 -13 0
-9 -16 0
-10 -15 0
-9 -20 0
-10 -19 0
-11 -14 0
-12 -13 0
-11 -16 0
-12 -15 0
-11 -20 0
-12 -19 0
-13 -16 0
-14 -15 0
-13 -18 0
-14 -17 0
-13 -20 0
-14 -19 0
-15 -18 0
-16 -17 0
-15 -20 0
-16 -19 0
-17 -20 0
-18 -19 0
-1 -2 0
-3 -4 0
-5 -6 0
-7 -8 0
-9 -10 0
-11 -12 0
-13 -14 0
-15 -16 0
-17 -18 0
-19 -20 0
1 3 5 7 9 11 13 15 17 19 0
2 4 6 8 10 12 14 16 18 20 0
